NAME          COPTPROB
OBJSENSE
  MIN
ROWS
 N  __OBJ___
 L  C181    
 L  C352    
 L  C430    
 L  C570    
 L  C590    
 L  C1090   
COLUMNS
    MARKER    'MARKER'                 'INTORG'
    x281      __OBJ___  -1
    x281      C181      1
    x281      C590      1
    x290      __OBJ___  -1
    x290      C430      1
    x290      C1090     1
    x419      __OBJ___  -1
    x419      C352      1
    x419      C590      1
    x483      __OBJ___  -1
    x483      C352      1
    x483      C570      1
    x539      __OBJ___  -1
    x539      C570      1
    x539      C1090     1
    x542      __OBJ___  -1
    x542      C181      1
    x542      C430      1
    MARKER    'MARKER'                 'INTEND'
RHS
    RHS       __OBJ___  336
    RHS       C181      1
    RHS       C352      1
    RHS       C430      1
    RHS       C570      1
    RHS       C590      1
    RHS       C1090     1
BOUNDS
 UP BOUND     x281      1
 UP BOUND     x290      1
 UP BOUND     x419      1
 UP BOUND     x483      1
 UP BOUND     x539      1
 UP BOUND     x542      1
ENDATA
